(set-info :source |printed by MathSAT|)
(declare-fun call_synapse.ite2.next () Int)
(declare-fun call_synapse.ite7 () Int)
(declare-fun call_synapse.ite10.next () Int)
(declare-fun call_Sofar.Sofar.next () Bool)
(declare-fun call_synapse.ite14.next () Int)
(declare-fun call_synapse.dirty_s () Int)
(declare-fun env () Bool)
(declare-fun mem_init_s.next () Int)
(declare-fun call_synapse.ite.next () Int)
(declare-fun call_synapse.garde_s3.next () Bool)
(declare-fun call_synapse.ite9.next () Int)
(declare-fun param_init_invalid_s.next () Int)
(declare-fun call_synapse.valid_s () Int)
(declare-fun call_synapse.invalid_s () Int)
(declare-fun call_synapse.flby () Int)
(declare-fun _R1_ () Bool)
(declare-fun call_synapse.ite11.next () Int)
(declare-fun param_e_s3 () Bool)
(declare-fun call_synapse.flby3 () Int)
(declare-fun call_synapse.ite3.next () Int)
(declare-fun call_First.First.next () Int)
(declare-fun call_synapse.flby.next () Int)
(declare-fun param_e_s1 () Bool)
(declare-fun call_synapse.valid_s.next () Int)
(declare-fun _OK_ () Bool)
(declare-fun call_synapse.dirty_s.next () Int)
(declare-fun call_synapse.ite17.next () Int)
(declare-fun call_synapse.flby2 () Int)
(declare-fun call_Sofar.flby () Bool)
(declare-fun call_synapse.ite () Int)
(declare-fun param_e_s3.next () Bool)
(declare-fun call_synapse.ite13.next () Int)
(declare-fun call_synapse.mem_init_s () Int)
(declare-fun call_synapse.flby2.next () Int)
(declare-fun call_Sofar.Sofar () Bool)
(declare-fun call_synapse.ite5.next () Int)
(declare-fun _R2_.next () Bool)
(declare-fun invalid_s.next () Int)
(declare-fun call_excludes3.excludes.next () Bool)
(declare-fun call_synapse.mem_init_s.next () Int)
(declare-fun call_synapse.ite2 () Int)
(declare-fun call_synapse.ite10 () Int)
(declare-fun call_synapse.invalid_s.next () Int)
(declare-fun valid_s () Int)
(declare-fun call_synapse.ite11 () Int)
(declare-fun call_First.flby.next () Int)
(declare-fun call_synapse.ite6 () Int)
(declare-fun call_synapse.ite12 () Int)
(declare-fun call_synapse.ite15.next () Int)
(declare-fun _R3_ () Bool)
(declare-fun param_e_s2 () Bool)
(declare-fun param_e_s2.next () Bool)
(declare-fun call_synapse.ite16 () Int)
(declare-fun call_synapse.ite16.next () Int)
(declare-fun call_synapse.flby4 () Int)
(declare-fun call_synapse.ite17 () Int)
(declare-fun call_synapse.ite18.next () Int)
(declare-fun call_synapse.ite4 () Int)
(declare-fun call_First.First () Int)
(declare-fun call_synapse.ite18 () Int)
(declare-fun call_synapse.ite4.next () Int)
(declare-fun _R2_ () Bool)
(declare-fun call_synapse.garde_s1.next () Bool)
(declare-fun call_synapse.ite12.next () Int)
(declare-fun call_synapse.ite13 () Int)
(declare-fun mem_init_s () Int)
(declare-fun call_synapse.flby4.next () Int)
(declare-fun flby.next () Bool)
(declare-fun invalid_s () Int)
(declare-fun call_synapse.ite6.next () Int)
(declare-fun _R3_.next () Bool)
(declare-fun call_First.flby () Int)
(declare-fun valid_s.next () Int)
(declare-fun env.next () Bool)
(declare-fun call_synapse.garde_s2.next () Bool)
(declare-fun param_e_s1.next () Bool)
(declare-fun dirty_s.next () Int)
(declare-fun call_synapse.flby3.next () Int)
(declare-fun call_excludes3.excludes () Bool)
(declare-fun call_synapse.ite5 () Int)
(declare-fun flby () Bool)
(declare-fun call_synapse.ite8.next () Int)
(declare-fun call_Sofar.flby.next () Bool)
(declare-fun call_synapse.ite14 () Int)
(declare-fun call_synapse.ite8 () Int)
(declare-fun _OK_.next () Bool)
(declare-fun dirty_s () Int)
(declare-fun call_synapse.ite7.next () Int)
(declare-fun _R1_.next () Bool)
(define-fun .def_931 () Bool (= call_First.flby.next call_First.First.next))
(define-fun .def_929 () Bool (= call_Sofar.flby.next call_Sofar.Sofar.next))
(define-fun .def_923 () Bool (and param_e_s1.next param_e_s2.next))
(define-fun .def_922 () Bool (and param_e_s3.next param_e_s1.next))
(define-fun .def_924 () Bool (or .def_922 .def_923))
(define-fun .def_921 () Bool (and param_e_s3.next param_e_s2.next))
(define-fun .def_925 () Bool (or .def_921 .def_924))
(define-fun .def_926 () Bool (not .def_925))
(define-fun .def_927 () Bool (= call_excludes3.excludes.next .def_926))
(define-fun .def_919 () Bool (= call_synapse.flby.next call_synapse.mem_init_s.next))
(define-fun .def_917 () Bool (= call_synapse.flby4.next call_synapse.dirty_s.next))
(define-fun .def_915 () Bool (= call_synapse.flby3.next call_synapse.valid_s.next))
(define-fun .def_913 () Bool (= call_synapse.flby2.next call_synapse.invalid_s.next))
(define-fun .def_909 () Bool (= call_synapse.ite16.next call_synapse.ite17.next))
(define-fun .def_910 () Bool (or param_e_s2.next .def_909))
(define-fun .def_906 () Bool (= call_synapse.ite14.next call_synapse.ite17.next))
(define-fun .def_897 () Bool (not param_e_s2.next))
(define-fun .def_907 () Bool (or .def_897 .def_906))
(define-fun .def_903 () Bool (= call_synapse.ite10.next call_synapse.ite11.next))
(define-fun .def_904 () Bool (or param_e_s2.next .def_903))
(define-fun .def_900 () Bool (= call_synapse.ite8.next call_synapse.ite11.next))
(define-fun .def_901 () Bool (or .def_897 .def_900))
(define-fun .def_896 () Bool (= call_synapse.ite2.next call_synapse.ite5.next))
(define-fun .def_898 () Bool (or .def_896 .def_897))
(define-fun .def_893 () Bool (= call_synapse.ite4.next call_synapse.ite5.next))
(define-fun .def_895 () Bool (or .def_893 param_e_s2.next))
(define-fun .def_899 () Bool (and .def_895 .def_898))
(define-fun .def_902 () Bool (and .def_899 .def_901))
(define-fun .def_905 () Bool (and .def_902 .def_904))
(define-fun .def_908 () Bool (and .def_905 .def_907))
(define-fun .def_911 () Bool (and .def_908 .def_910))
(define-fun .def_889 () Bool (= call_synapse.ite18.next call_synapse.ite17.next))
(define-fun .def_890 () Bool (or param_e_s1.next .def_889))
(define-fun .def_885 () Bool (= call_synapse.ite13.next call_synapse.ite18.next))
(define-fun .def_875 () Bool (not param_e_s1.next))
(define-fun .def_886 () Bool (or .def_875 .def_885))
(define-fun .def_882 () Bool (= call_synapse.ite12.next call_synapse.ite11.next))
(define-fun .def_883 () Bool (or param_e_s1.next .def_882))
(define-fun .def_878 () Bool (= call_synapse.ite7.next call_synapse.ite12.next))
(define-fun .def_879 () Bool (or .def_875 .def_878))
(define-fun .def_874 () Bool (= call_synapse.ite.next call_synapse.ite6.next))
(define-fun .def_876 () Bool (or .def_874 .def_875))
(define-fun .def_871 () Bool (= call_synapse.ite6.next call_synapse.ite5.next))
(define-fun .def_873 () Bool (or .def_871 param_e_s1.next))
(define-fun .def_877 () Bool (and .def_873 .def_876))
(define-fun .def_880 () Bool (and .def_877 .def_879))
(define-fun .def_884 () Bool (and .def_880 .def_883))
(define-fun .def_887 () Bool (and .def_884 .def_886))
(define-fun .def_891 () Bool (and .def_887 .def_890))
(define-fun .def_868 () Bool (= env.next call_Sofar.Sofar.next))
(define-fun .def_859 () Int (* (- 1) call_First.First.next))
(define-fun .def_860 () Int (+ dirty_s.next .def_859))
(define-fun .def_861 () Int (+ valid_s.next .def_860))
(define-fun .def_862 () Int (+ invalid_s.next .def_861))
(define-fun .def_863 () Bool (= .def_862 0))
(define-fun .def_850 () Bool (not env.next))
(define-fun .def_864 () Bool (or .def_850 .def_863))
(define-fun .def_865 () Bool (= _R3_.next .def_864))
(define-fun .def_854 () Bool (or flby.next .def_850))
(define-fun .def_855 () Bool (= _R2_.next .def_854))
(define-fun .def_847 () Bool (<= 2 dirty_s.next))
(define-fun .def_848 () Bool (not .def_847))
(define-fun .def_851 () Bool (or .def_848 .def_850))
(define-fun .def_852 () Bool (= _R1_.next .def_851))
(define-fun .def_845 () Bool (= mem_init_s.next call_synapse.mem_init_s.next))
(define-fun .def_841 () Bool (= dirty_s.next call_synapse.dirty_s.next))
(define-fun .def_838 () Bool (= valid_s.next call_synapse.valid_s.next))
(define-fun .def_835 () Bool (= invalid_s.next call_synapse.invalid_s.next))
(define-fun .def_830 () Bool (and _R1_.next _R2_.next))
(define-fun .def_832 () Bool (and .def_830 _R3_.next))
(define-fun .def_833 () Bool (= _OK_.next .def_832))
(define-fun .def_836 () Bool (and .def_833 .def_835))
(define-fun .def_839 () Bool (and .def_836 .def_838))
(define-fun .def_842 () Bool (and .def_839 .def_841))
(define-fun .def_846 () Bool (and .def_842 .def_845))
(define-fun .def_853 () Bool (and .def_846 .def_852))
(define-fun .def_856 () Bool (and .def_853 .def_855))
(define-fun .def_866 () Bool (and .def_856 .def_865))
(define-fun .def_869 () Bool (and .def_866 .def_868))
(define-fun .def_892 () Bool (and .def_869 .def_891))
(define-fun .def_912 () Bool (and .def_892 .def_911))
(define-fun .def_914 () Bool (and .def_912 .def_913))
(define-fun .def_916 () Bool (and .def_914 .def_915))
(define-fun .def_918 () Bool (and .def_916 .def_917))
(define-fun .def_920 () Bool (and .def_918 .def_919))
(define-fun .def_928 () Bool (and .def_920 .def_927))
(define-fun .def_930 () Bool (and .def_928 .def_929))
(define-fun .def_932 () Bool (and .def_930 .def_931))
(define-fun .def_656 () Bool (= call_First.flby call_First.First))
(define-fun .def_654 () Bool (= call_Sofar.flby call_Sofar.Sofar))
(define-fun .def_648 () Bool (and param_e_s1 param_e_s2))
(define-fun .def_647 () Bool (and param_e_s3 param_e_s1))
(define-fun .def_649 () Bool (or .def_647 .def_648))
(define-fun .def_646 () Bool (and param_e_s3 param_e_s2))
(define-fun .def_650 () Bool (or .def_646 .def_649))
(define-fun .def_651 () Bool (not .def_650))
(define-fun .def_652 () Bool (= call_excludes3.excludes .def_651))
(define-fun .def_644 () Bool (= call_synapse.flby call_synapse.mem_init_s))
(define-fun .def_642 () Bool (= call_synapse.flby4 call_synapse.dirty_s))
(define-fun .def_640 () Bool (= call_synapse.flby3 call_synapse.valid_s))
(define-fun .def_638 () Bool (= call_synapse.flby2 call_synapse.invalid_s))
(define-fun .def_634 () Bool (= call_synapse.ite16 call_synapse.ite17))
(define-fun .def_635 () Bool (or param_e_s2 .def_634))
(define-fun .def_631 () Bool (= call_synapse.ite14 call_synapse.ite17))
(define-fun .def_622 () Bool (not param_e_s2))
(define-fun .def_632 () Bool (or .def_622 .def_631))
(define-fun .def_628 () Bool (= call_synapse.ite10 call_synapse.ite11))
(define-fun .def_629 () Bool (or param_e_s2 .def_628))
(define-fun .def_625 () Bool (= call_synapse.ite8 call_synapse.ite11))
(define-fun .def_626 () Bool (or .def_622 .def_625))
(define-fun .def_621 () Bool (= call_synapse.ite5 call_synapse.ite2))
(define-fun .def_623 () Bool (or .def_621 .def_622))
(define-fun .def_617 () Bool (= call_synapse.ite4 call_synapse.ite5))
(define-fun .def_619 () Bool (or .def_617 param_e_s2))
(define-fun .def_624 () Bool (and .def_619 .def_623))
(define-fun .def_627 () Bool (and .def_624 .def_626))
(define-fun .def_630 () Bool (and .def_627 .def_629))
(define-fun .def_633 () Bool (and .def_630 .def_632))
(define-fun .def_636 () Bool (and .def_633 .def_635))
(define-fun .def_613 () Bool (= call_synapse.ite18 call_synapse.ite17))
(define-fun .def_614 () Bool (or param_e_s1 .def_613))
(define-fun .def_609 () Bool (= call_synapse.ite13 call_synapse.ite18))
(define-fun .def_596 () Bool (not param_e_s1))
(define-fun .def_610 () Bool (or .def_596 .def_609))
(define-fun .def_605 () Bool (= call_synapse.ite12 call_synapse.ite11))
(define-fun .def_606 () Bool (or param_e_s1 .def_605))
(define-fun .def_601 () Bool (= call_synapse.ite7 call_synapse.ite12))
(define-fun .def_602 () Bool (or .def_596 .def_601))
(define-fun .def_595 () Bool (= call_synapse.ite6 call_synapse.ite))
(define-fun .def_597 () Bool (or .def_595 .def_596))
(define-fun .def_591 () Bool (= call_synapse.ite6 call_synapse.ite5))
(define-fun .def_593 () Bool (or .def_591 param_e_s1))
(define-fun .def_598 () Bool (and .def_593 .def_597))
(define-fun .def_603 () Bool (and .def_598 .def_602))
(define-fun .def_607 () Bool (and .def_603 .def_606))
(define-fun .def_611 () Bool (and .def_607 .def_610))
(define-fun .def_615 () Bool (and .def_611 .def_614))
(define-fun .def_587 () Bool (= env call_Sofar.Sofar))
(define-fun .def_578 () Int (* (- 1) call_First.First))
(define-fun .def_579 () Int (+ dirty_s .def_578))
(define-fun .def_580 () Int (+ valid_s .def_579))
(define-fun .def_581 () Int (+ invalid_s .def_580))
(define-fun .def_582 () Bool (= .def_581 0))
(define-fun .def_564 () Bool (not env))
(define-fun .def_583 () Bool (or .def_564 .def_582))
(define-fun .def_584 () Bool (= _R3_ .def_583))
(define-fun .def_568 () Bool (or flby .def_564))
(define-fun .def_569 () Bool (= _R2_ .def_568))
(define-fun .def_561 () Bool (<= 2 dirty_s))
(define-fun .def_562 () Bool (not .def_561))
(define-fun .def_565 () Bool (or .def_562 .def_564))
(define-fun .def_566 () Bool (= _R1_ .def_565))
(define-fun .def_559 () Bool (= call_synapse.mem_init_s mem_init_s))
(define-fun .def_556 () Bool (= dirty_s call_synapse.dirty_s))
(define-fun .def_552 () Bool (= valid_s call_synapse.valid_s))
(define-fun .def_548 () Bool (= invalid_s call_synapse.invalid_s))
(define-fun .def_542 () Bool (and _R1_ _R2_))
(define-fun .def_544 () Bool (and .def_542 _R3_))
(define-fun .def_545 () Bool (= _OK_ .def_544))
(define-fun .def_549 () Bool (and .def_545 .def_548))
(define-fun .def_553 () Bool (and .def_549 .def_552))
(define-fun .def_557 () Bool (and .def_553 .def_556))
(define-fun .def_560 () Bool (and .def_557 .def_559))
(define-fun .def_567 () Bool (and .def_560 .def_566))
(define-fun .def_570 () Bool (and .def_567 .def_569))
(define-fun .def_585 () Bool (and .def_570 .def_584))
(define-fun .def_588 () Bool (and .def_585 .def_587))
(define-fun .def_616 () Bool (and .def_588 .def_615))
(define-fun .def_637 () Bool (and .def_616 .def_636))
(define-fun .def_639 () Bool (and .def_637 .def_638))
(define-fun .def_641 () Bool (and .def_639 .def_640))
(define-fun .def_643 () Bool (and .def_641 .def_642))
(define-fun .def_645 () Bool (and .def_643 .def_644))
(define-fun .def_653 () Bool (and .def_645 .def_652))
(define-fun .def_655 () Bool (and .def_653 .def_654))
(define-fun .def_657 () Bool (and .def_655 .def_656))
(define-fun .def_933 () Bool (and .def_657 .def_932))
(define-fun .def_825 () Bool (= call_First.First call_First.flby.next))
(define-fun .def_817 () Bool (<= 0 param_init_invalid_s.next))
(define-fun .def_819 () Bool (and .def_817 call_excludes3.excludes.next))
(define-fun .def_820 () Bool (or call_Sofar.Sofar .def_819))
(define-fun .def_822 () Bool (= .def_820 call_Sofar.flby.next))
(define-fun .def_814 () Bool (= call_synapse.ite18.next call_synapse.flby4.next))
(define-fun .def_810 () Bool (= call_synapse.ite12.next call_synapse.flby3.next))
(define-fun .def_806 () Bool (= call_synapse.ite6.next call_synapse.flby2.next))
(define-fun .def_802 () Bool (= call_synapse.mem_init_s call_synapse.flby.next))
(define-fun .def_780 () Bool (<= 1 call_synapse.invalid_s))
(define-fun .def_798 () Bool (= call_synapse.garde_s3.next .def_780))
(define-fun .def_795 () Bool (= call_synapse.ite9.next 0))
(define-fun .def_744 () Bool (not call_synapse.garde_s3.next))
(define-fun .def_796 () Bool (or .def_744 .def_795))
(define-fun .def_793 () Bool (= call_synapse.ite15.next 1))
(define-fun .def_794 () Bool (or .def_744 .def_793))
(define-fun .def_797 () Bool (and .def_794 .def_796))
(define-fun .def_799 () Bool (and .def_797 .def_798))
(define-fun .def_789 () Bool (<= 1 call_synapse.valid_s))
(define-fun .def_790 () Bool (= call_synapse.garde_s2.next .def_789))
(define-fun .def_786 () Bool (= call_synapse.ite8.next 0))
(define-fun .def_729 () Bool (not call_synapse.garde_s2.next))
(define-fun .def_787 () Bool (or .def_729 .def_786))
(define-fun .def_784 () Bool (= call_synapse.ite14.next 1))
(define-fun .def_785 () Bool (or .def_729 .def_784))
(define-fun .def_788 () Bool (and .def_785 .def_787))
(define-fun .def_791 () Bool (and .def_788 .def_790))
(define-fun .def_781 () Bool (= call_synapse.garde_s1.next .def_780))
(define-fun .def_778 () Bool (= call_synapse.ite13.next 0))
(define-fun .def_716 () Bool (not call_synapse.garde_s1.next))
(define-fun .def_779 () Bool (or .def_716 .def_778))
(define-fun .def_782 () Bool (and .def_779 .def_781))
(define-fun .def_774 () Bool (= call_synapse.dirty_s call_synapse.ite15.next))
(define-fun .def_775 () Bool (or call_synapse.garde_s3.next .def_774))
(define-fun .def_771 () Bool (= call_synapse.dirty_s call_synapse.ite13.next))
(define-fun .def_772 () Bool (or call_synapse.garde_s1.next .def_771))
(define-fun .def_768 () Bool (= call_synapse.dirty_s call_synapse.ite14.next))
(define-fun .def_769 () Bool (or call_synapse.garde_s2.next .def_768))
(define-fun .def_773 () Bool (and .def_769 .def_772))
(define-fun .def_776 () Bool (and .def_773 .def_775))
(define-fun .def_763 () Bool (= call_synapse.valid_s call_synapse.ite9.next))
(define-fun .def_764 () Bool (or call_synapse.garde_s3.next .def_763))
(define-fun .def_760 () Bool (= call_synapse.valid_s call_synapse.ite8.next))
(define-fun .def_761 () Bool (or call_synapse.garde_s2.next .def_760))
(define-fun .def_754 () Int (* (- 1) call_synapse.ite7.next))
(define-fun .def_755 () Int (+ call_synapse.valid_s .def_754))
(define-fun .def_756 () Bool (= .def_755 (- 1)))
(define-fun .def_757 () Bool (or .def_716 .def_756))
(define-fun .def_752 () Bool (= call_synapse.valid_s call_synapse.ite7.next))
(define-fun .def_753 () Bool (or call_synapse.garde_s1.next .def_752))
(define-fun .def_758 () Bool (and .def_753 .def_757))
(define-fun .def_762 () Bool (and .def_758 .def_761))
(define-fun .def_765 () Bool (and .def_762 .def_764))
(define-fun .def_747 () Bool (= call_synapse.invalid_s call_synapse.ite3.next))
(define-fun .def_748 () Bool (or call_synapse.garde_s3.next .def_747))
(define-fun .def_735 () Int (* (- 1) call_synapse.ite3.next))
(define-fun .def_739 () Int (+ call_synapse.dirty_s .def_735))
(define-fun .def_740 () Int (+ call_synapse.valid_s .def_739))
(define-fun .def_741 () Int (+ call_synapse.invalid_s .def_740))
(define-fun .def_742 () Bool (= .def_741 1))
(define-fun .def_745 () Bool (or .def_742 .def_744))
(define-fun .def_732 () Bool (= call_synapse.invalid_s call_synapse.ite2.next))
(define-fun .def_733 () Bool (or call_synapse.garde_s2.next .def_732))
(define-fun .def_720 () Int (* (- 1) call_synapse.ite2.next))
(define-fun .def_724 () Int (+ call_synapse.dirty_s .def_720))
(define-fun .def_725 () Int (+ call_synapse.valid_s .def_724))
(define-fun .def_726 () Int (+ call_synapse.invalid_s .def_725))
(define-fun .def_727 () Bool (= .def_726 1))
(define-fun .def_730 () Bool (or .def_727 .def_729))
(define-fun .def_711 () Int (* (- 1) call_synapse.ite.next))
(define-fun .def_712 () Int (* (- 1) call_synapse.dirty_s))
(define-fun .def_713 () Int (+ .def_712 .def_711))
(define-fun .def_714 () Int (+ call_synapse.invalid_s .def_713))
(define-fun .def_715 () Bool (= .def_714 1))
(define-fun .def_717 () Bool (or .def_715 .def_716))
(define-fun .def_705 () Bool (= call_synapse.invalid_s call_synapse.ite.next))
(define-fun .def_707 () Bool (or .def_705 call_synapse.garde_s1.next))
(define-fun .def_718 () Bool (and .def_707 .def_717))
(define-fun .def_731 () Bool (and .def_718 .def_730))
(define-fun .def_734 () Bool (and .def_731 .def_733))
(define-fun .def_746 () Bool (and .def_734 .def_745))
(define-fun .def_749 () Bool (and .def_746 .def_748))
(define-fun .def_700 () Bool (= call_synapse.dirty_s call_synapse.ite16.next))
(define-fun .def_701 () Bool (or param_e_s3.next .def_700))
(define-fun .def_697 () Bool (= call_synapse.ite15.next call_synapse.ite16.next))
(define-fun .def_684 () Bool (not param_e_s3.next))
(define-fun .def_698 () Bool (or .def_684 .def_697))
(define-fun .def_692 () Bool (= call_synapse.valid_s call_synapse.ite10.next))
(define-fun .def_693 () Bool (or param_e_s3.next .def_692))
(define-fun .def_689 () Bool (= call_synapse.ite9.next call_synapse.ite10.next))
(define-fun .def_690 () Bool (or .def_684 .def_689))
(define-fun .def_683 () Bool (= call_synapse.ite4.next call_synapse.ite3.next))
(define-fun .def_685 () Bool (or .def_683 .def_684))
(define-fun .def_679 () Bool (= call_synapse.invalid_s call_synapse.ite4.next))
(define-fun .def_681 () Bool (or .def_679 param_e_s3.next))
(define-fun .def_686 () Bool (and .def_681 .def_685))
(define-fun .def_691 () Bool (and .def_686 .def_690))
(define-fun .def_694 () Bool (and .def_691 .def_693))
(define-fun .def_699 () Bool (and .def_694 .def_698))
(define-fun .def_702 () Bool (and .def_699 .def_701))
(define-fun .def_665 () Int (* (- 1) dirty_s.next))
(define-fun .def_662 () Int (* (- 1) valid_s.next))
(define-fun .def_670 () Int (+ .def_662 .def_665))
(define-fun .def_660 () Int (* (- 1) invalid_s.next))
(define-fun .def_671 () Int (+ .def_660 .def_670))
(define-fun .def_672 () Int (+ dirty_s .def_671))
(define-fun .def_673 () Int (+ valid_s .def_672))
(define-fun .def_674 () Int (+ invalid_s .def_673))
(define-fun .def_675 () Bool (= .def_674 0))
(define-fun .def_677 () Bool (= .def_675 flby.next))
(define-fun .def_703 () Bool (and .def_677 .def_702))
(define-fun .def_750 () Bool (and .def_703 .def_749))
(define-fun .def_766 () Bool (and .def_750 .def_765))
(define-fun .def_777 () Bool (and .def_766 .def_776))
(define-fun .def_783 () Bool (and .def_777 .def_782))
(define-fun .def_792 () Bool (and .def_783 .def_791))
(define-fun .def_800 () Bool (and .def_792 .def_799))
(define-fun .def_803 () Bool (and .def_800 .def_802))
(define-fun .def_807 () Bool (and .def_803 .def_806))
(define-fun .def_811 () Bool (and .def_807 .def_810))
(define-fun .def_815 () Bool (and .def_811 .def_814))
(define-fun .def_823 () Bool (and .def_815 .def_822))
(define-fun .def_826 () Bool (and .def_823 .def_825))
(define-fun .def_934 () Bool (and .def_826 .def_933))
(assert .def_934)
